[VALIDATOR STDOUT]
Checking plan: /home/jfan5/Safety-gen/runs/benchmark/optic/grippers_20260205_114054/grippers/optic_results/grippers-n2-r18-o16-s16001.plan
Plan executed successfully - checking goal
Plan valid
Final value: 52 

Successful plans:
Value: 52
 /home/jfan5/Safety-gen/runs/benchmark/optic/grippers_20260205_114054/grippers/optic_results/grippers-n2-r18-o16-s16001.plan 52
